0 1 16.0
0 2 71.0
0 3 5.0
0 4 25.0
0 5 88.0
0 6 77.0
0 7 10.0
0 8 66.0
0 9 66.0
0 10 41.0
0 11 107.0
0 12 29.0
0 13 47.0
0 14 60.0
0 15 102.0
0 16 31.0
0 17 68.0
0 18 113.0
0 19 132.0
0 20 79.0
0 21 93.0
0 22 84.0
0 23 77.0
0 24 46.0
0 25 123.0
0 26 45.0
0 27 121.0
0 28 77.0
0 29 126.0
0 30 48.0
0 31 92.0
0 32 16.0
0 33 45.0
0 34 104.0
0 35 54.0
0 36 84.0
0 37 80.0
0 38 31.0
0 39 76.0
0 40 72.0
0 41 112.0
0 42 49.0
0 43 84.0
0 44 49.0
0 45 75.0
0 46 149.0
0 47 38.0
0 48 71.0
0 49 53.0
1 2 87.0
1 3 11.0
1 4 41.0
1 5 72.0
1 6 86.0
1 7 16.0
1 8 72.0
1 9 72.0
1 10 47.0
1 11 113.0
1 12 45.0
1 13 53.0
1 14 66.0
1 15 96.0
1 16 47.0
1 17 74.0
1 18 119.0
1 19 148.0
1 20 85.0
1 21 99.0
1 22 90.0
1 23 61.0
1 24 30.0
1 25 129.0
1 26 51.0
1 27 127.0
1 28 83.0
1 29 110.0
1 30 54.0
1 31 98.0
1 32 22.0
1 33 29.0
1 34 110.0
1 35 60.0
1 36 68.0
1 37 64.0
1 38 47.0
1 39 82.0
1 40 78.0
1 41 112.0
1 42 33.0
1 43 90.0
1 44 55.0
1 45 81.0
1 46 135.0
1 47 44.0
1 48 87.0
1 49 59.0
2 3 76.0
2 4 46.0
2 5 86.0
2 6 148.0
2 7 81.0
2 8 137.0
2 9 137.0
2 10 112.0
2 11 178.0
2 12 50.0
2 13 118.0
2 14 131.0
2 15 153.0
2 16 40.0
2 17 139.0
2 18 165.0
2 19 153.0
2 20 150.0
2 21 164.0
2 22 102.0
2 23 97.0
2 24 117.0
2 25 147.0
2 26 116.0
2 27 139.0
2 28 99.0
2 29 161.0
2 30 119.0
2 31 116.0
2 32 87.0
2 33 116.0
2 34 128.0
2 35 125.0
2 36 121.0
2 37 94.0
2 38 52.0
2 39 142.0
2 40 123.0
2 41 46.0
2 42 120.0
2 43 92.0
2 44 115.0
2 45 138.0
2 46 171.0
2 47 109.0
2 48 142.0
2 49 124.0
3 4 30.0
3 5 83.0
3 6 75.0
3 7 5.0
3 8 61.0
3 9 61.0
3 10 36.0
3 11 102.0
3 12 34.0
3 13 42.0
3 14 55.0
3 15 97.0
3 16 36.0
3 17 63.0
3 18 108.0
3 19 137.0
3 20 74.0
3 21 88.0
3 22 79.0
3 23 72.0
3 24 41.0
3 25 118.0
3 26 40.0
3 27 116.0
3 28 72.0
3 29 121.0
3 30 43.0
3 31 87.0
3 32 11.0
3 33 40.0
3 34 99.0
3 35 49.0
3 36 79.0
3 37 75.0
3 38 36.0
3 39 71.0
3 40 67.0
3 41 107.0
3 42 44.0
3 43 79.0
3 44 44.0
3 45 70.0
3 46 144.0
3 47 33.0
3 48 76.0
3 49 48.0
4 5 113.0
4 6 102.0
4 7 35.0
4 8 91.0
4 9 91.0
4 10 66.0
4 11 132.0
4 12 4.0
4 13 72.0
4 14 85.0
4 15 107.0
4 16 6.0
4 17 93.0
4 18 138.0
4 19 107.0
4 20 104.0
4 21 118.0
4 22 78.0
4 23 102.0
4 24 71.0
4 25 148.0
4 26 70.0
4 27 115.0
4 28 94.0
4 29 151.0
4 30 73.0
4 31 117.0
4 32 41.0
4 33 70.0
4 34 129.0
4 35 79.0
4 36 91.0
4 37 105.0
4 38 6.0
4 39 101.0
4 40 77.0
4 41 92.0
4 42 74.0
4 43 88.0
4 44 74.0
4 45 92.0
4 46 174.0
4 47 63.0
4 48 96.0
4 49 78.0
5 6 86.0
5 7 88.0
5 8 66.0
5 9 79.0
5 10 104.0
5 11 119.0
5 12 117.0
5 13 112.0
5 14 72.0
5 15 70.0
5 16 119.0
5 17 139.0
5 18 87.0
5 19 171.0
5 20 79.0
5 21 125.0
5 22 60.0
5 23 11.0
5 24 102.0
5 25 131.0
5 26 91.0
5 27 97.0
5 28 43.0
5 29 75.0
5 30 94.0
5 31 100.0
5 32 94.0
5 33 101.0
5 34 112.0
5 35 82.0
5 36 35.0
5 37 8.0
5 38 119.0
5 39 56.0
5 40 100.0
5 41 40.0
5 42 39.0
5 43 50.0
5 44 127.0
5 45 64.0
5 46 85.0
5 47 116.0
5 48 100.0
5 49 118.0
6 7 70.0
6 8 20.0
6 9 126.0
6 10 101.0
6 11 45.0
6 12 106.0
6 13 86.0
6 14 26.0
6 15 121.0
6 16 108.0
6 17 118.0
6 18 103.0
6 19 196.0
6 20 33.0
6 21 79.0
6 22 90.0
6 23 75.0
6 24 116.0
6 25 142.0
6 26 35.0
6 27 127.0
6 28 73.0
6 29 108.0
6 30 38.0
6 31 130.0
6 32 70.0
6 33 115.0
6 34 142.0
6 35 44.0
6 36 76.0
6 37 78.0
6 38 108.0
6 39 30.0
6 40 91.0
6 41 126.0
6 42 103.0
6 43 80.0
6 44 110.0
6 45 128.0
6 46 103.0
6 47 92.0
6 48 121.0
6 49 92.0
7 8 66.0
7 9 56.0
7 10 31.0
7 11 107.0
7 12 39.0
7 13 47.0
7 14 60.0
7 15 102.0
7 16 41.0
7 17 68.0
7 18 103.0
7 19 142.0
7 20 79.0
7 21 93.0
7 22 74.0
7 23 77.0
7 24 46.0
7 25 113.0
7 26 35.0
7 27 111.0
7 28 67.0
7 29 126.0
7 30 38.0
7 31 82.0
7 32 16.0
7 33 45.0
7 34 94.0
7 35 44.0
7 36 84.0
7 37 80.0
7 38 41.0
7 39 76.0
7 40 72.0
7 41 102.0
7 42 49.0
7 43 74.0
7 44 49.0
7 45 65.0
7 46 142.0
7 47 38.0
7 48 81.0
7 49 53.0
8 9 122.0
8 10 97.0
8 11 53.0
8 12 95.0
8 13 66.0
8 14 6.0
8 15 101.0
8 16 97.0
8 17 124.0
8 18 104.0
8 19 176.0
8 20 13.0
8 21 59.0
8 22 70.0
8 23 55.0
8 24 96.0
8 25 122.0
8 26 36.0
8 27 107.0
8 28 53.0
8 29 88.0
8 30 39.0
8 31 110.0
8 32 50.0
8 33 97.0
8 34 122.0
8 35 27.0
8 36 56.0
8 37 58.0
8 38 97.0
8 39 10.0
8 40 71.0
8 41 106.0
8 42 83.0
8 43 60.0
8 44 90.0
8 45 108.0
8 46 83.0
8 47 72.0
8 48 101.0
8 49 72.0
9 10 25.0
9 11 163.0
9 12 95.0
9 13 103.0
9 14 116.0
9 15 133.0
9 16 97.0
9 17 124.0
9 18 87.0
9 19 198.0
9 20 135.0
9 21 149.0
9 22 130.0
9 23 74.0
9 24 102.0
9 25 161.0
9 26 91.0
9 27 167.0
9 28 122.0
9 29 138.0
9 30 94.0
9 31 136.0
9 32 72.0
9 33 101.0
9 34 142.0
9 35 100.0
9 36 98.0
9 37 71.0
9 38 97.0
9 39 119.0
9 40 128.0
9 41 119.0
9 42 102.0
9 43 129.0
9 44 105.0
9 45 121.0
9 46 86.0
9 47 94.0
9 48 137.0
9 49 109.0
10 11 138.0
10 12 70.0
10 13 78.0
10 14 91.0
10 15 133.0
10 16 72.0
10 17 99.0
10 18 112.0
10 19 173.0
10 20 110.0
10 21 124.0
10 22 105.0
10 23 99.0
10 24 77.0
10 25 144.0
10 26 66.0
10 27 142.0
10 28 98.0
10 29 157.0
10 30 69.0
10 31 113.0
10 32 47.0
10 33 76.0
10 34 125.0
10 35 75.0
10 36 90.0
10 37 96.0
10 38 72.0
10 39 107.0
10 40 103.0
10 41 133.0
10 42 80.0
10 43 105.0
10 44 80.0
10 45 96.0
10 46 111.0
10 47 69.0
10 48 112.0
10 49 84.0
11 12 136.0
11 13 119.0
11 14 47.0
11 15 154.0
11 16 138.0
11 17 163.0
11 18 148.0
11 19 229.0
11 20 66.0
11 21 112.0
11 22 107.0
11 23 108.0
11 24 143.0
11 25 164.0
11 26 80.0
11 27 144.0
11 28 94.0
11 29 141.0
11 30 83.0
11 31 133.0
11 32 91.0
11 33 142.0
11 34 145.0
11 35 80.0
11 36 97.0
11 37 111.0
11 38 138.0
11 39 63.0
11 40 124.0
11 41 143.0
11 42 136.0
11 43 97.0
11 44 131.0
11 45 161.0
11 46 136.0
11 47 113.0
11 48 154.0
11 49 125.0
12 13 76.0
12 14 89.0
12 15 111.0
12 16 10.0
12 17 97.0
12 18 139.0
12 19 111.0
12 20 108.0
12 21 122.0
12 22 74.0
12 23 106.0
12 24 75.0
12 25 145.0
12 26 74.0
12 27 111.0
12 28 90.0
12 29 155.0
12 30 77.0
12 31 114.0
12 32 45.0
12 33 74.0
12 34 126.0
12 35 83.0
12 36 87.0
12 37 109.0
12 38 10.0
12 39 105.0
12 40 81.0
12 41 96.0
12 42 78.0
12 43 84.0
12 44 78.0
12 45 96.0
12 46 175.0
12 47 67.0
12 48 100.0
12 49 82.0
13 14 72.0
13 15 117.0
13 16 78.0
13 17 105.0
13 18 150.0
13 19 130.0
13 20 79.0
13 21 46.0
13 22 121.0
13 23 101.0
13 24 83.0
13 25 160.0
13 26 82.0
13 27 158.0
13 28 114.0
13 29 95.0
13 30 85.0
13 31 129.0
13 32 31.0
13 33 82.0
13 34 141.0
13 35 91.0
13 36 121.0
13 37 104.0
13 38 78.0
13 39 56.0
13 40 87.0
13 41 149.0
13 42 86.0
13 43 121.0
13 44 27.0
13 45 112.0
13 46 149.0
13 47 9.0
13 48 35.0
13 49 6.0
14 15 107.0
14 16 91.0
14 17 118.0
14 18 102.0
14 19 182.0
14 20 19.0
14 21 65.0
14 22 64.0
14 23 61.0
14 24 96.0
14 25 128.0
14 26 42.0
14 27 101.0
14 28 47.0
14 29 94.0
14 30 45.0
14 31 104.0
14 32 44.0
14 33 95.0
14 34 116.0
14 35 33.0
14 36 50.0
14 37 64.0
14 38 91.0
14 39 16.0
14 40 77.0
14 41 100.0
14 42 89.0
14 43 54.0
14 44 84.0
14 45 114.0
14 46 89.0
14 47 66.0
14 48 107.0
14 49 78.0
15 16 113.0
15 17 160.0
15 18 141.0
15 19 137.0
15 20 88.0
15 21 160.0
15 22 130.0
15 23 65.0
15 24 66.0
15 25 201.0
15 26 137.0
15 27 167.0
15 28 113.0
15 29 129.0
15 30 140.0
15 31 170.0
15 32 86.0
15 33 67.0
15 34 182.0
15 35 128.0
15 36 89.0
15 37 62.0
15 38 113.0
15 39 110.0
15 40 30.0
15 41 110.0
15 42 93.0
15 43 120.0
15 44 126.0
15 45 118.0
15 46 139.0
15 47 108.0
15 48 147.0
15 49 123.0
16 17 99.0
16 18 144.0
16 19 113.0
16 20 110.0
16 21 124.0
16 22 84.0
16 23 108.0
16 24 77.0
16 25 154.0
16 26 76.0
16 27 121.0
16 28 100.0
16 29 157.0
16 30 79.0
16 31 123.0
16 32 47.0
16 33 76.0
16 34 135.0
16 35 85.0
16 36 97.0
16 37 111.0
16 38 12.0
16 39 107.0
16 40 83.0
16 41 86.0
16 42 80.0
16 43 94.0
16 44 80.0
16 45 98.0
16 46 180.0
16 47 69.0
16 48 102.0
16 49 84.0
17 18 131.0
17 19 184.0
17 20 137.0
17 21 151.0
17 22 128.0
17 23 134.0
17 24 104.0
17 25 95.0
17 26 103.0
17 27 165.0
17 28 135.0
17 29 184.0
17 30 106.0
17 31 88.0
17 32 74.0
17 33 103.0
17 34 76.0
17 35 112.0
17 36 142.0
17 37 131.0
17 38 99.0
17 39 134.0
17 40 130.0
17 41 158.0
17 42 107.0
17 43 138.0
17 44 107.0
17 45 133.0
17 46 159.0
17 47 96.0
17 48 139.0
17 49 111.0
18 19 152.0
18 20 117.0
18 21 163.0
18 22 89.0
18 23 82.0
18 24 104.0
18 25 74.0
18 26 68.0
18 27 126.0
18 28 106.0
18 29 146.0
18 30 71.0
18 31 49.0
18 32 119.0
18 33 103.0
18 34 55.0
18 35 77.0
18 36 52.0
18 37 79.0
18 38 144.0
18 39 114.0
18 40 171.0
18 41 119.0
18 42 110.0
18 43 99.0
18 44 152.0
18 45 135.0
18 46 120.0
18 47 141.0
18 48 159.0
18 49 156.0
19 20 163.0
19 21 176.0
19 22 136.0
19 23 160.0
19 24 178.0
19 25 207.0
19 26 177.0
19 27 173.0
19 28 153.0
19 29 121.0
19 30 180.0
19 31 176.0
19 32 143.0
19 33 177.0
19 34 188.0
19 35 186.0
19 36 144.0
19 37 163.0
19 38 113.0
19 39 186.0
19 40 107.0
19 41 192.0
19 42 132.0
19 43 146.0
19 44 103.0
19 45 199.0
19 46 234.0
19 47 121.0
19 48 165.0
19 49 136.0
20 21 72.0
20 22 83.0
20 23 68.0
20 24 109.0
20 25 135.0
20 26 49.0
20 27 120.0
20 28 66.0
20 29 101.0
20 30 52.0
20 31 123.0
20 32 63.0
20 33 110.0
20 34 135.0
20 35 40.0
20 36 69.0
20 37 71.0
20 38 110.0
20 39 23.0
20 40 58.0
20 41 119.0
20 42 96.0
20 43 73.0
20 44 103.0
20 45 121.0
20 46 96.0
20 47 85.0
20 48 114.0
20 49 85.0
21 22 129.0
21 23 114.0
21 24 127.0
21 25 181.0
21 26 95.0
21 27 166.0
21 28 112.0
21 29 129.0
21 30 98.0
21 31 169.0
21 32 77.0
21 33 128.0
21 34 181.0
21 35 86.0
21 36 115.0
21 37 117.0
21 38 124.0
21 39 69.0
21 40 130.0
21 41 165.0
21 42 130.0
21 43 119.0
21 44 73.0
21 45 158.0
21 46 142.0
21 47 55.0
21 48 69.0
21 49 40.0
22 23 71.0
22 24 120.0
22 25 71.0
22 26 95.0
22 27 37.0
22 28 17.0
22 29 135.0
22 30 98.0
22 31 40.0
22 32 90.0
22 33 119.0
22 34 52.0
22 35 86.0
22 36 95.0
22 37 68.0
22 38 84.0
22 39 80.0
22 40 141.0
22 41 56.0
22 42 99.0
22 43 10.0
22 44 123.0
22 45 124.0
22 46 101.0
22 47 112.0
22 48 105.0
22 49 127.0
23 24 91.0
23 25 142.0
23 26 86.0
23 27 108.0
23 28 54.0
23 29 64.0
23 30 89.0
23 31 111.0
23 32 83.0
23 33 90.0
23 34 123.0
23 35 77.0
23 36 30.0
23 37 3.0
23 38 108.0
23 39 45.0
23 40 95.0
23 41 51.0
23 42 28.0
23 43 61.0
23 44 116.0
23 45 53.0
23 46 74.0
23 47 105.0
23 48 89.0
23 49 107.0
24 25 159.0
24 26 81.0
24 27 157.0
24 28 113.0
24 29 80.0
24 30 84.0
24 31 128.0
24 32 52.0
24 33 1.0
24 34 140.0
24 35 90.0
24 36 98.0
24 37 94.0
24 38 77.0
24 39 86.0
24 40 96.0
24 41 142.0
24 42 63.0
24 43 120.0
24 44 85.0
24 45 111.0
24 46 165.0
24 47 74.0
24 48 81.0
24 49 87.0
25 26 142.0
25 27 108.0
25 28 88.0
25 29 170.0
25 30 145.0
25 31 31.0
25 32 129.0
25 33 158.0
25 34 19.0
25 35 137.0
25 36 126.0
25 37 139.0
25 38 154.0
25 39 132.0
25 40 185.0
25 41 101.0
25 42 162.0
25 43 81.0
25 44 162.0
25 45 178.0
25 46 102.0
25 47 151.0
25 48 176.0
25 49 166.0
26 27 132.0
26 28 89.0
26 29 124.0
26 30 3.0
26 31 113.0
26 32 51.0
26 33 80.0
26 34 123.0
26 35 9.0
26 36 56.0
26 37 83.0
26 38 76.0
26 39 46.0
26 40 107.0
26 41 92.0
26 42 84.0
26 43 85.0
26 44 84.0
26 45 100.0
26 46 119.0
26 47 73.0
26 48 116.0
26 49 88.0
27 28 54.0
27 29 172.0
27 30 135.0
27 31 77.0
27 32 127.0
27 33 156.0
27 34 89.0
27 35 123.0
27 36 132.0
27 37 105.0
27 38 121.0
27 39 117.0
27 40 178.0
27 41 93.0
27 42 131.0
27 43 47.0
27 44 160.0
27 45 161.0
27 46 138.0
27 47 149.0
27 48 142.0
27 49 164.0
28 29 118.0
28 30 92.0
28 31 57.0
28 32 83.0
28 33 112.0
28 34 69.0
28 35 80.0
28 36 78.0
28 37 51.0
28 38 100.0
28 39 63.0
28 40 124.0
28 41 53.0
28 42 82.0
28 43 7.0
28 44 116.0
28 45 107.0
28 46 118.0
28 47 105.0
28 48 102.0
28 49 120.0
29 30 127.0
29 31 175.0
29 32 126.0
29 33 81.0
29 34 187.0
29 35 115.0
29 36 94.0
29 37 67.0
29 38 157.0
29 39 78.0
29 40 159.0
29 41 115.0
29 42 92.0
29 43 125.0
29 44 122.0
29 45 117.0
29 46 138.0
29 47 104.0
29 48 79.0
29 49 89.0
30 31 116.0
30 32 54.0
30 33 83.0
30 34 126.0
30 35 12.0
30 36 59.0
30 37 86.0
30 38 79.0
30 39 49.0
30 40 110.0
30 41 95.0
30 42 87.0
30 43 88.0
30 44 87.0
30 45 103.0
30 46 122.0
30 47 76.0
30 48 119.0
30 49 91.0
31 32 98.0
31 33 127.0
31 34 12.0
31 35 122.0
31 36 101.0
31 37 108.0
31 38 123.0
31 39 120.0
31 40 154.0
31 41 70.0
31 42 131.0
31 43 50.0
31 44 131.0
31 45 147.0
31 46 71.0
31 47 120.0
31 48 145.0
31 49 135.0
32 33 51.0
32 34 110.0
32 35 60.0
32 36 90.0
32 37 86.0
32 38 47.0
32 39 60.0
32 40 56.0
32 41 118.0
32 42 55.0
32 43 90.0
32 44 40.0
32 45 81.0
32 46 133.0
32 47 22.0
32 48 66.0
32 49 37.0
33 34 139.0
33 35 89.0
33 36 97.0
33 37 93.0
33 38 76.0
33 39 87.0
33 40 97.0
33 41 141.0
33 42 62.0
33 43 119.0
33 44 84.0
33 45 110.0
33 46 164.0
33 47 73.0
33 48 82.0
33 49 88.0
34 35 132.0
34 36 107.0
34 37 120.0
34 38 135.0
34 39 132.0
34 40 166.0
34 41 82.0
34 42 143.0
34 43 62.0
34 44 143.0
34 45 159.0
34 46 83.0
34 47 132.0
34 48 157.0
34 49 147.0
35 36 47.0
35 37 74.0
35 38 85.0
35 39 37.0
35 40 98.0
35 41 101.0
35 42 93.0
35 43 76.0
35 44 93.0
35 45 109.0
35 46 110.0
35 47 82.0
35 48 125.0
35 49 97.0
36 37 27.0
36 38 97.0
36 39 66.0
36 40 119.0
36 41 75.0
36 42 58.0
36 43 85.0
36 44 123.0
36 45 83.0
36 46 104.0
36 47 112.0
36 48 107.0
36 49 127.0
37 38 111.0
37 39 48.0
37 40 92.0
37 41 48.0
37 42 31.0
37 43 58.0
37 44 119.0
37 45 56.0
37 46 77.0
37 47 108.0
37 48 92.0
37 49 110.0
38 39 107.0
38 40 83.0
38 41 98.0
38 42 80.0
38 43 94.0
38 44 80.0
38 45 98.0
38 46 180.0
38 47 69.0
38 48 102.0
38 49 84.0
39 40 81.0
39 41 96.0
39 42 73.0
39 43 70.0
39 44 83.0
39 45 98.0
39 46 93.0
39 47 65.0
39 48 91.0
39 49 62.0
40 41 140.0
40 42 111.0
40 43 131.0
40 44 96.0
40 45 137.0
40 46 154.0
40 47 78.0
40 48 122.0
40 49 93.0
41 42 79.0
41 43 46.0
41 44 151.0
41 45 104.0
41 46 125.0
41 47 140.0
41 48 140.0
41 49 155.0
42 43 89.0
42 44 88.0
42 45 81.0
42 46 102.0
42 47 77.0
42 48 61.0
42 49 90.0
43 44 123.0
43 45 114.0
43 46 111.0
43 47 112.0
43 48 95.0
43 49 124.0
44 45 114.0
44 46 167.0
44 47 18.0
44 48 62.0
44 49 33.0
45 46 127.0
45 47 103.0
45 48 142.0
45 49 118.0
46 47 155.0
46 48 163.0
46 49 155.0
47 48 44.0
47 49 15.0
48 49 29.0
